N = 240;
M = 592;
Edge_Start = [1, 1, 2, 3, 3, 4, 5, 5, 7, 7, 9, 9, 10, 11, 11, 12, 13, 13, 14, 15, 16, 17, 17, 18, 19, 19, 20, 21, 22, 23, 23, 25, 25, 26, 27, 27, 28, 29, 31, 32, 33, 33, 34, 35, 35, 36, 37, 37, 38, 39, 39, 40, 41, 41, 42, 44, 44, 45, 46, 47, 48, 48, 49, 50, 52, 52, 53, 54, 54, 55, 56, 57, 58, 58, 59, 60, 60, 61, 62, 62, 63, 64, 64, 66, 67, 67, 68, 69, 69, 70, 71, 71, 72, 73, 73, 74, 75, 75, 76, 77, 77, 78, 79, 79, 80, 81, 82, 83, 84, 85, 85, 86, 88, 89, 90, 90, 91, 92, 92, 93, 94, 94, 95, 96, 96, 98, 98, 100, 100, 101, 102, 102, 103, 104, 105, 106, 107, 108, 108, 110, 111, 111, 112, 113, 113, 114, 115, 115, 116, 117, 117, 118, 119, 119, 120, 121, 121, 122, 123, 124, 125, 125, 127, 127, 128, 129, 131, 132, 132, 133, 134, 135, 136, 136, 137, 138, 138, 139, 140, 141, 142, 142, 144, 144, 145, 146, 146, 147, 148, 148, 149, 150, 150, 151, 152, 152, 154, 155, 156, 157, 157, 158, 159, 159, 160, 161, 161, 162, 163, 163, 165, 165, 166, 167, 167, 169, 169, 170, 171, 171, 172, 173, 173, 174, 176, 176, 177, 178, 178, 179, 180, 180, 181, 182, 182, 183, 184, 184, 185, 186, 187, 188, 188, 190, 191, 192, 193, 194, 194, 196, 196, 198, 199, 199, 201, 201, 202, 203, 203, 204, 205, 205, 206, 207, 207, 208, 209, 209, 210, 211, 211, 212, 213, 213, 214, 215, 215, 216, 217, 217, 218, 219, 220, 221, 223, 224, 225, 227, 229, 230, 231, 232, 234, 237, 238, 239, 2, 22, 3, 4, 24, 5, 6, 26, 8, 28, 10, 30, 11, 12, 32, 13, 14, 34, 15, 36, 17, 18, 38, 19, 20, 40, 21, 42, 23, 24, 45, 26, 47, 27, 28, 49, 29, 30, 53, 33, 34, 55, 35, 36, 57, 37, 38, 59, 39, 40, 61, 41, 42, 63, 43, 45, 66, 46, 47, 48, 49, 70, 50, 51, 53, 74, 54, 55, 76, 56, 57, 58, 59, 80, 60, 61, 82, 62, 63, 84, 64, 65, 86, 67, 68, 89, 69, 70, 91, 71, 72, 93, 73, 74, 95, 75, 76, 97, 77, 78, 99, 79, 80, 101, 81, 82, 83, 105, 85, 86, 107, 87, 89, 90, 91, 112, 92, 93, 114, 94, 95, 116, 96, 97, 118, 99, 120, 101, 122, 102, 103, 124, 104, 126, 106, 107, 108, 109, 130, 111, 112, 133, 113, 114, 135, 115, 116, 137, 117, 118, 139, 119, 120, 141, 121, 122, 143, 123, 124, 125, 126, 147, 128, 149, 129, 151, 153, 133, 154, 134, 135, 136, 137, 158, 138, 139, 160, 140, 141, 142, 143, 164, 145, 166, 146, 147, 168, 148, 149, 170, 150, 151, 172, 152, 153, 174, 155, 156, 157, 158, 179, 159, 160, 181, 161, 162, 183, 163, 164, 185, 166, 187, 167, 168, 189, 170, 191, 171, 172, 193, 173, 174, 195, 175, 177, 198, 178, 179, 200, 180, 181, 202, 182, 183, 204, 184, 185, 206, 186, 187, 188, 189, 210, 191, 192, 214, 194, 195, 216, 197, 218, 199, 200, 220, 202, 222, 203, 204, 224, 205, 206, 226, 207, 208, 228, 209, 210, 230, 211, 212, 232, 213, 214, 234, 215, 216, 236, 217, 218, 238, 219, 240, 221, 222, 224, 225, 226, 228, 230, 231, 232, 233, 235, 238, 239, 240];
Edge_End = [2, 22, 3, 4, 24, 5, 6, 26, 8, 28, 10, 30, 11, 12, 32, 13, 14, 34, 15, 36, 17, 18, 38, 19, 20, 40, 21, 42, 23, 24, 45, 26, 47, 27, 28, 49, 29, 30, 53, 33, 34, 55, 35, 36, 57, 37, 38, 59, 39, 40, 61, 41, 42, 63, 43, 45, 66, 46, 47, 48, 49, 70, 50, 51, 53, 74, 54, 55, 76, 56, 57, 58, 59, 80, 60, 61, 82, 62, 63, 84, 64, 65, 86, 67, 68, 89, 69, 70, 91, 71, 72, 93, 73, 74, 95, 75, 76, 97, 77, 78, 99, 79, 80, 101, 81, 82, 83, 105, 85, 86, 107, 87, 89, 90, 91, 112, 92, 93, 114, 94, 95, 116, 96, 97, 118, 99, 120, 101, 122, 102, 103, 124, 104, 126, 106, 107, 108, 109, 130, 111, 112, 133, 113, 114, 135, 115, 116, 137, 117, 118, 139, 119, 120, 141, 121, 122, 143, 123, 124, 125, 126, 147, 128, 149, 129, 151, 153, 133, 154, 134, 135, 136, 137, 158, 138, 139, 160, 140, 141, 142, 143, 164, 145, 166, 146, 147, 168, 148, 149, 170, 150, 151, 172, 152, 153, 174, 155, 156, 157, 158, 179, 159, 160, 181, 161, 162, 183, 163, 164, 185, 166, 187, 167, 168, 189, 170, 191, 171, 172, 193, 173, 174, 195, 175, 177, 198, 178, 179, 200, 180, 181, 202, 182, 183, 204, 184, 185, 206, 186, 187, 188, 189, 210, 191, 192, 214, 194, 195, 216, 197, 218, 199, 200, 220, 202, 222, 203, 204, 224, 205, 206, 226, 207, 208, 228, 209, 210, 230, 211, 212, 232, 213, 214, 234, 215, 216, 236, 217, 218, 238, 219, 240, 221, 222, 224, 225, 226, 228, 230, 231, 232, 233, 235, 238, 239, 240, 1, 1, 2, 3, 3, 4, 5, 5, 7, 7, 9, 9, 10, 11, 11, 12, 13, 13, 14, 15, 16, 17, 17, 18, 19, 19, 20, 21, 22, 23, 23, 25, 25, 26, 27, 27, 28, 29, 31, 32, 33, 33, 34, 35, 35, 36, 37, 37, 38, 39, 39, 40, 41, 41, 42, 44, 44, 45, 46, 47, 48, 48, 49, 50, 52, 52, 53, 54, 54, 55, 56, 57, 58, 58, 59, 60, 60, 61, 62, 62, 63, 64, 64, 66, 67, 67, 68, 69, 69, 70, 71, 71, 72, 73, 73, 74, 75, 75, 76, 77, 77, 78, 79, 79, 80, 81, 82, 83, 84, 85, 85, 86, 88, 89, 90, 90, 91, 92, 92, 93, 94, 94, 95, 96, 96, 98, 98, 100, 100, 101, 102, 102, 103, 104, 105, 106, 107, 108, 108, 110, 111, 111, 112, 113, 113, 114, 115, 115, 116, 117, 117, 118, 119, 119, 120, 121, 121, 122, 123, 124, 125, 125, 127, 127, 128, 129, 131, 132, 132, 133, 134, 135, 136, 136, 137, 138, 138, 139, 140, 141, 142, 142, 144, 144, 145, 146, 146, 147, 148, 148, 149, 150, 150, 151, 152, 152, 154, 155, 156, 157, 157, 158, 159, 159, 160, 161, 161, 162, 163, 163, 165, 165, 166, 167, 167, 169, 169, 170, 171, 171, 172, 173, 173, 174, 176, 176, 177, 178, 178, 179, 180, 180, 181, 182, 182, 183, 184, 184, 185, 186, 187, 188, 188, 190, 191, 192, 193, 194, 194, 196, 196, 198, 199, 199, 201, 201, 202, 203, 203, 204, 205, 205, 206, 207, 207, 208, 209, 209, 210, 211, 211, 212, 213, 213, 214, 215, 215, 216, 217, 217, 218, 219, 220, 221, 223, 224, 225, 227, 229, 230, 231, 232, 234, 237, 238, 239];
L = [17, 10, 12, 2, 19, 14, 1, 14, 15, 14, 4, 4, 11, 6, 7, 19, 9, 7, 10, 13, 19, 12, 5, 13, 11, 7, 17, 3, 8, 5, 13, 3, 7, 4, 10, 4, 12, 14, 5, 8, 19, 16, 1, 9, 14, 14, 5, 19, 13, 11, 18, 8, 8, 7, 8, 3, 9, 3, 15, 9, 3, 2, 2, 14, 10, 5, 17, 1, 12, 1, 8, 13, 11, 18, 2, 11, 8, 1, 18, 16, 4, 8, 13, 10, 9, 7, 17, 9, 6, 6, 19, 19, 4, 16, 19, 11, 14, 12, 9, 4, 1, 6, 5, 11, 16, 3, 3, 2, 3, 6, 3, 13, 15, 18, 7, 11, 1, 15, 1, 2, 15, 10, 18, 18, 19, 7, 12, 6, 13, 13, 6, 14, 5, 9, 1, 10, 6, 4, 12, 8, 18, 17, 12, 7, 11, 7, 17, 2, 2, 14, 14, 1, 1, 11, 17, 2, 12, 13, 12, 4, 13, 11, 12, 5, 8, 1, 8, 4, 1, 10, 7, 9, 13, 15, 10, 15, 13, 9, 1, 1, 2, 17, 6, 3, 6, 18, 17, 17, 14, 16, 18, 11, 12, 8, 10, 18, 15, 1, 11, 10, 7, 11, 8, 16, 16, 12, 13, 1, 14, 14, 10, 8, 1, 6, 15, 2, 5, 19, 9, 6, 18, 3, 3, 1, 13, 5, 13, 1, 12, 2, 9, 18, 8, 8, 10, 17, 12, 1, 2, 18, 17, 6, 14, 17, 4, 19, 4, 3, 17, 18, 15, 11, 16, 4, 9, 3, 17, 18, 3, 1, 8, 3, 4, 2, 7, 9, 19, 2, 17, 3, 7, 11, 1, 11, 14, 14, 4, 4, 10, 1, 17, 5, 6, 18, 17, 12, 12, 5, 7, 17, 9, 18, 13, 1, 3, 7, 17, 10, 12, 2, 19, 14, 1, 14, 15, 14, 4, 4, 11, 6, 7, 19, 9, 7, 10, 13, 19, 12, 5, 13, 11, 7, 17, 3, 8, 5, 13, 3, 7, 4, 10, 4, 12, 14, 5, 8, 19, 16, 1, 9, 14, 14, 5, 19, 13, 11, 18, 8, 8, 7, 8, 3, 9, 3, 15, 9, 3, 2, 2, 14, 10, 5, 17, 1, 12, 1, 8, 13, 11, 18, 2, 11, 8, 1, 18, 16, 4, 8, 13, 10, 9, 7, 17, 9, 6, 6, 19, 19, 4, 16, 19, 11, 14, 12, 9, 4, 1, 6, 5, 11, 16, 3, 3, 2, 3, 6, 3, 13, 15, 18, 7, 11, 1, 15, 1, 2, 15, 10, 18, 18, 19, 7, 12, 6, 13, 13, 6, 14, 5, 9, 1, 10, 6, 4, 12, 8, 18, 17, 12, 7, 11, 7, 17, 2, 2, 14, 14, 1, 1, 11, 17, 2, 12, 13, 12, 4, 13, 11, 12, 5, 8, 1, 8, 4, 1, 10, 7, 9, 13, 15, 10, 15, 13, 9, 1, 1, 2, 17, 6, 3, 6, 18, 17, 17, 14, 16, 18, 11, 12, 8, 10, 18, 15, 1, 11, 10, 7, 11, 8, 16, 16, 12, 13, 1, 14, 14, 10, 8, 1, 6, 15, 2, 5, 19, 9, 6, 18, 3, 3, 1, 13, 5, 13, 1, 12, 2, 9, 18, 8, 8, 10, 17, 12, 1, 2, 18, 17, 6, 14, 17, 4, 19, 4, 3, 17, 18, 15, 11, 16, 4, 9, 3, 17, 18, 3, 1, 8, 3, 4, 2, 7, 9, 19, 2, 17, 3, 7, 11, 1, 11, 14, 14, 4, 4, 10, 1, 17, 5, 6, 18, 17, 12, 12, 5, 7, 17, 9, 18, 13, 1, 3, 7];
T = [10, 14, 15, 1, 20, 16, 3, 10, 15, 4, 8, 10, 12, 1, 1, 24, 1, 19, 3, 7, 21, 15, 4, 20, 14, 1, 10, 6, 1, 1, 13, 3, 18, 1, 10, 6, 14, 15, 1, 12, 19, 20, 1, 6, 14, 9, 1, 12, 14, 3, 19, 1, 8, 2, 11, 1, 1, 7, 22, 2, 1, 9, 10, 13, 11, 6, 20, 1, 4, 9, 11, 14, 15, 25, 1, 12, 15, 2, 19, 18, 1, 9, 16, 17, 4, 9, 20, 4, 6, 11, 20, 6, 3, 16, 19, 15, 22, 15, 7, 1, 1, 1, 1, 11, 12, 9, 4, 1, 3, 12, 11, 16, 16, 16, 13, 18, 1, 1, 1, 1, 24, 6, 20, 22, 23, 8, 16, 6, 14, 19, 4, 17, 2, 4, 1, 15, 1, 6, 20, 2, 16, 17, 23, 2, 15, 1, 13, 8, 1, 8, 17, 1, 1, 14, 11, 1, 5, 18, 4, 8, 8, 10, 15, 9, 2, 2, 1, 1, 6, 17, 5, 13, 11, 16, 5, 14, 1, 14, 2, 6, 1, 10, 4, 3, 4, 15, 21, 11, 9, 14, 11, 18, 19, 6, 6, 13, 17, 1, 15, 14, 1, 10, 3, 13, 22, 8, 6, 5, 13, 14, 4, 8, 10, 1, 22, 5, 4, 17, 7, 2, 24, 1, 4, 1, 20, 7, 7, 1, 12, 3, 9, 15, 6, 12, 4, 12, 15, 1, 8, 16, 9, 2, 17, 12, 4, 16, 1, 2, 13, 21, 13, 11, 14, 5, 1, 1, 5, 4, 5, 1, 7, 1, 1, 3, 17, 11, 14, 1, 17, 4, 7, 11, 1, 8, 14, 7, 1, 1, 13, 1, 14, 3, 2, 24, 17, 9, 14, 1, 8, 22, 3, 18, 10, 3, 1, 2, 10, 14, 15, 1, 20, 16, 3, 10, 15, 4, 8, 10, 12, 1, 1, 24, 1, 19, 3, 7, 21, 15, 4, 20, 14, 1, 10, 6, 1, 1, 13, 3, 18, 1, 10, 6, 14, 15, 1, 12, 19, 20, 1, 6, 14, 9, 1, 12, 14, 3, 19, 1, 8, 2, 11, 1, 1, 7, 22, 2, 1, 9, 10, 13, 11, 6, 20, 1, 4, 9, 11, 14, 15, 25, 1, 12, 15, 2, 19, 18, 1, 9, 16, 17, 4, 9, 20, 4, 6, 11, 20, 6, 3, 16, 19, 15, 22, 15, 7, 1, 1, 1, 1, 11, 12, 9, 4, 1, 3, 12, 11, 16, 16, 16, 13, 18, 1, 1, 1, 1, 24, 6, 20, 22, 23, 8, 16, 6, 14, 19, 4, 17, 2, 4, 1, 15, 1, 6, 20, 2, 16, 17, 23, 2, 15, 1, 13, 8, 1, 8, 17, 1, 1, 14, 11, 1, 5, 18, 4, 8, 8, 10, 15, 9, 2, 2, 1, 1, 6, 17, 5, 13, 11, 16, 5, 14, 1, 14, 2, 6, 1, 10, 4, 3, 4, 15, 21, 11, 9, 14, 11, 18, 19, 6, 6, 13, 17, 1, 15, 14, 1, 10, 3, 13, 22, 8, 6, 5, 13, 14, 4, 8, 10, 1, 22, 5, 4, 17, 7, 2, 24, 1, 4, 1, 20, 7, 7, 1, 12, 3, 9, 15, 6, 12, 4, 12, 15, 1, 8, 16, 9, 2, 17, 12, 4, 16, 1, 2, 13, 21, 13, 11, 14, 5, 1, 1, 5, 4, 5, 1, 7, 1, 1, 3, 17, 11, 14, 1, 17, 4, 7, 11, 1, 8, 14, 7, 1, 1, 13, 1, 14, 3, 2, 24, 17, 9, 14, 1, 8, 22, 3, 18, 10, 3, 1, 2];
Lower_Bound = [0, 10, 25, 26, 42, 45, 67, 82, 102, 110, 122, 123, 147, 148, 151, 193, 172, 187, 186, 200, 200, 14, 15, 16, 55, 52, 53, 63, 77, 92, 136, 123, 135, 154, 155, 158, 167, 168, 182, 185, 186, 194, 205, 29, 28, 35, 57, 59, 59, 69, 82, 124, 135, 133, 134, 143, 154, 150, 162, 161, 173, 175, 188, 189, 198, 30, 47, 51, 71, 68, 79, 99, 102, 118, 133, 129, 122, 123, 124, 125, 137, 146, 150, 181, 178, 190, 206, 72, 56, 72, 77, 78, 79, 80, 104, 118, 140, 113, 121, 123, 129, 148, 152, 151, 151, 152, 167, 168, 174, 108, 106, 90, 81, 79, 80, 86, 87, 95, 96, 97, 108, 109, 127, 131, 139, 147, 178, 193, 195, 188, 210, 119, 118, 101, 96, 99, 88, 93, 104, 112, 110, 114, 113, 172, 168, 164, 149, 160, 169, 180, 197, 203, 209, 125, 137, 136, 121, 107, 97, 94, 116, 124, 129, 124, 175, 175, 185, 185, 179, 174, 191, 198, 200, 201, 202, 150, 130, 123, 122, 119, 110, 116, 122, 129, 143, 151, 167, 174, 176, 195, 183, 187, 193, 194, 196, 234, 255, 157, 149, 135, 130, 129, 124, 120, 121, 128, 129, 132, 143, 157, 174, 178, 189, 190, 204, 207, 208, 221, 215, 154, 155, 131, 146, 129, 136, 122, 147, 146, 152, 144, 166, 169, 187, 197, 207, 205, 212, 209, 210, 212];
Upper_Bound = [0, 10, 25, 26, 42, 45, 67, 82, 102, 110, 122, 123, 147, 148, 151, 193, 172, 187, 186, 200, 200, 14, 15, 16, 55, 52, 53, 63, 77, 92, 136, 123, 135, 154, 155, 158, 167, 168, 182, 185, 186, 194, 205, 29, 28, 35, 57, 59, 59, 69, 82, 124, 135, 133, 134, 143, 154, 150, 162, 161, 173, 175, 188, 189, 198, 30, 47, 51, 71, 68, 79, 99, 102, 118, 133, 129, 122, 123, 124, 125, 137, 146, 150, 181, 178, 190, 206, 72, 56, 72, 77, 78, 79, 80, 104, 118, 140, 113, 121, 123, 129, 148, 152, 151, 151, 152, 167, 168, 174, 108, 106, 90, 81, 79, 80, 86, 87, 95, 96, 97, 108, 109, 127, 131, 139, 147, 178, 193, 195, 188, 210, 119, 118, 101, 96, 99, 88, 93, 104, 112, 110, 114, 113, 172, 168, 164, 149, 160, 169, 180, 197, 203, 209, 125, 137, 136, 121, 107, 97, 94, 116, 124, 129, 124, 175, 175, 185, 185, 179, 174, 191, 198, 200, 201, 202, 150, 130, 123, 122, 119, 110, 116, 122, 129, 143, 151, 167, 174, 176, 195, 183, 187, 193, 194, 196, 234, 255, 157, 149, 135, 130, 129, 124, 120, 121, 128, 129, 132, 143, 157, 174, 178, 189, 190, 204, 207, 208, 221, 215, 154, 155, 131, 146, 129, 136, 122, 147, 146, 152, 144, 166, 169, 187, 197, 207, 205, 212, 209, 210, 212];
Start = 1;
End = 240;
Time = 212;
